NAME : random95.781.tour
COMMENT : Length = 781
COMMENT : Found by LKH [Keld Helsgaun] Mon Dec 30 21:55:42 2024
TYPE : TOUR
DIMENSION : 95
TOUR_SECTION
1
14
65
9
44
22
11
35
40
42
58
55
86
62
57
68
38
33
46
48
13
70
24
54
16
8
15
31
6
3
67
94
52
88
83
78
36
60
23
85
5
91
63
47
49
27
2
51
80
4
81
73
41
87
7
59
17
34
76
82
61
45
64
10
32
79
21
53
95
72
30
92
28
71
37
89
29
26
19
77
90
84
18
56
69
12
25
39
93
75
66
74
50
20
43
-1
EOF
